clingo version 5.5.2
Reading from stdin
Solving...
UNSATISFIABLE

Models       : 0
Calls        : 1
Time         : 1.754s (Solving: 0.00s 1st Model: 0.00s Unsat: 0.00s)
CPU Time     : 0.094s

Choices      : 0       
Conflicts    : 1        (Analyzed: 0)
Restarts     : 0       
Stab. Tests  : 1        (Full: 1 Partial: 0)
Problems     : 0        (Average Length: 0.00 Splits: 0)
Lemmas       : 0        (Deleted: 0)
  Binary     : 0        (Ratio:   0.00%)
  Ternary    : 0        (Ratio:   0.00%)
  Conflict   : 0        (Average Length:    0.0 Ratio:   0.00%) 
  Loop       : 0        (Average Length:    0.0 Ratio:   0.00%) 
  Other      : 0        (Average Length:    0.0 Ratio:   0.00%) 
Backjumps    : 0        (Average:  0.00 Max:   0 Sum:      0)
  Executed   : 0        (Average:  0.00 Max:   0 Sum:      0 Ratio:   0.00%)
  Bounded    : 0        (Average:  0.00 Max:   0 Sum:      0 Ratio: 100.00%)

Rules        : 313      (Original: 301)
  Choice     : 32      
Atoms        : 166     
Disjunctions : 17       (Original: 17)
Bodies       : 197     
  Count      : 0        (Original: 12)
Equivalences : 92       (Atom=Atom: 16 Body=Body: 11 Other: 65)
Tight        : No       (SCCs: 1 Non-Hcfs: 1 Nodes: 88 Gammas: 0)
Variables    : 73       (Eliminated:    0 Frozen:   73)
Constraints  : 93       (Binary:  64.5% Ternary:  34.4% Other:   1.1%)

